;; produced by z3_gnatprove.drv ;;
(set-info :smt-lib-version 2.5)
(set-info :source |VC generated by SPARK 2014|)
(set-info :category industrial)
(set-info :status unknown)
;;; generated by SMT-LIB2 driver
;;; SMT-LIB2 driver: bit-vectors, common part
;;; SMT-LIB2: integer arithmetic
(declare-sort us_private 0)

(declare-const us_null_ext__ us_private)

(declare-const two_power_size_minus_one Int)

(declare-datatypes ()
  ((t__ref (t__refqtmk (t__content (_ BitVec 32))))))

(declare-sort state_range 0)

;; "state_range'int"
(declare-fun state_rangeqtint (state_range) Int)

;; "state_range'axiom"
(assert
  (forall ((i state_range))
    (and (<= 0 (state_rangeqtint i)) (<= (state_rangeqtint i) 623))))

;; "in_range"
(define-fun in_range ((x Int)) Bool
  (and (<= 0 x) (<= x 623)))

;; "to_rep"
(define-fun to_rep ((x state_range)) Int
  (state_rangeqtint x))

;; "of_rep"
(declare-fun of_rep (Int) state_range)

;; "inversion_axiom"
(assert
  (forall ((x state_range))
    (! (= (of_rep (to_rep x)) x) :pattern ((to_rep x)) )))

;; "range_axiom"
(assert
  (forall ((x state_range)) (! (in_range (to_rep x)) :pattern ((to_rep x)) )))

;; "coerce_axiom"
(assert
  (forall ((x Int))
    (! (=> (in_range x) (= (to_rep (of_rep x)) x)) :pattern ((to_rep
                                                               (of_rep x))) )))

(declare-sort unsigned_32 0)

(declare-const attr__ATTRIBUTE_MODULUS (_ BitVec 32))

;; "to_rep"
(declare-fun to_rep1 (unsigned_32) (_ BitVec 32))

;; "of_rep"
(declare-fun of_rep1 ((_ BitVec 32)) unsigned_32)

;; "inversion_axiom"
(assert
  (forall ((x unsigned_32))
    (! (= (of_rep1 (to_rep1 x)) x) :pattern ((to_rep1 x)) )))

;; "range_axiom"
(assert true)

;; "coerce_axiom"
(assert
  (forall ((x (_ BitVec 32)))
    (! (= (to_rep1 (of_rep1 x)) x) :pattern ((to_rep1 (of_rep1 x))) )))

(declare-const value__size Int)

(declare-const object__size Int)

(declare-const component__size Int)

(declare-const alignment Int)

;; "value__size_axiom"
(assert (<= 0 value__size))

;; "object__size_axiom"
(assert (<= 0 object__size))

;; "component__size_axiom"
(assert (<= 0 component__size))

;; "alignment_axiom"
(assert (<= 0 alignment))

(declare-datatypes ()
  ((us_split_fields
   (us_split_fieldsqtmk
   (rec__random__generator__state (Array Int unsigned_32))(rec__random__generator__index state_range)))))

(declare-datatypes ()
  ((us_split_fields__ref
   (us_split_fields__refqtmk (us_split_fields__content us_split_fields)))))

(declare-datatypes ()
  ((us_rep (us_repqtmk (us_split_fields1 us_split_fields)))))

(declare-const value__size1 Int)

(declare-const object__size1 Int)

(declare-const alignment1 Int)

;; "value__size_axiom"
(assert (<= 0 value__size1))

;; "object__size_axiom"
(assert (<= 0 object__size1))

;; "alignment_axiom"
(assert (<= 0 alignment1))

(declare-const random__generator__state__first__bit Int)

(declare-const random__generator__state__last__bit Int)

(declare-const random__generator__state__position Int)

;; "random__generator__state__first__bit_axiom"
(assert (<= 0 random__generator__state__first__bit))

;; "random__generator__state__last__bit_axiom"
(assert
  (< random__generator__state__first__bit random__generator__state__last__bit))

;; "random__generator__state__position_axiom"
(assert (<= 0 random__generator__state__position))

(declare-const random__generator__index__first__bit Int)

(declare-const random__generator__index__last__bit Int)

(declare-const random__generator__index__position Int)

;; "random__generator__index__first__bit_axiom"
(assert (<= 0 random__generator__index__first__bit))

;; "random__generator__index__last__bit_axiom"
(assert
  (< random__generator__index__first__bit random__generator__index__last__bit))

;; "random__generator__index__position_axiom"
(assert (<= 0 random__generator__index__position))

(declare-const dummy us_rep)

;; "dynamic_invariant"
(define-fun dynamic_invariant ((temp___expr_210 us_rep) (temp___is_init_206 Bool) (temp___skip_constant_207 Bool) (temp___do_toplevel_208 Bool) (temp___do_typ_inv_209 Bool)) Bool
  true)

;; "next"
(define-fun next ((param__x Int)) Int
  (ite (= param__x 623) 0 (+ param__x 1)))

(declare-const mat (Array (_ BitVec 32) unsigned_32))

(declare-const upper_mask (_ BitVec 32))

(declare-const lower_mask (_ BitVec 32))

(declare-const attr__ATTRIBUTE_MODULUS1 (_ BitVec 32))

(declare-const value__size2 Int)

(declare-const object__size2 Int)

(declare-const component__size1 Int)

(declare-const alignment2 Int)

;; "value__size_axiom"
(assert (<= 0 value__size2))

;; "object__size_axiom"
(assert (<= 0 object__size2))

;; "component__size_axiom"
(assert (<= 0 component__size1))

;; "alignment_axiom"
(assert (<= 0 alignment2))

(declare-const value__size3 Int)

(declare-const object__size3 Int)

(declare-const component__size2 Int)

(declare-const alignment3 Int)

;; "value__size_axiom"
(assert (<= 0 value__size3))

;; "object__size_axiom"
(assert (<= 0 object__size3))

;; "component__size_axiom"
(assert (<= 0 component__size2))

;; "alignment_axiom"
(assert (<= 0 alignment3))

;; "random__random__mat__aggregate_def"
(declare-fun random__random__mat__aggregate_def ((_ BitVec 32)
  (_ BitVec 32)) (Array (_ BitVec 32) unsigned_32))

;; "def_axiom"
(assert
  (forall ((temp___175 (_ BitVec 32)) (temp___176 (_ BitVec 32)))
    (let ((temp___177 (random__random__mat__aggregate_def
                        temp___175
                        temp___176)))
      (and
        (= (to_rep1 (select temp___177 #x00000000)) temp___175)
        (= (to_rep1 (select temp___177 #x00000001)) temp___176)))))

(declare-const g__split_fields us_split_fields)

(declare-const value (_ BitVec 32))

;; "g__split_fields'unused"
(define-fun g__split_fieldsqtunused () us_split_fields__ref
  (us_split_fields__refqtmk g__split_fields))

;; "Assume"
(assert
  (dynamic_invariant (us_repqtmk g__split_fields) true false true true))

;; "Assume"
(assert true)

;; "Assert"
(assert (bvule #x00000000 (bvadd #x00000000 #x00000001)))

(declare-const temp___327 (Array (_ BitVec 32) unsigned_32))

;; "H"
(assert true)

;; "H"
(assert true)

;; "H"
(assert (= (to_rep1 (select temp___327 #x00000000)) #x00000000))

;; "H"
(assert (= (to_rep1 (select temp___327 #x00000001)) #x9908B0DF))

;; "H"
(assert
  (= temp___327 (random__random__mat__aggregate_def #x00000000 #x9908B0DF)))

;; "random__random__mat__aggregate_def'result'unused"
(define-fun random__random__mat__aggregate_defqtresultqtunused () (Array (_ BitVec 32) unsigned_32)
  temp___327)

;; "random__random__mat__assume'unused"
(define-fun random__random__mat__assumeqtunused () (Array (_ BitVec 32) unsigned_32)
  temp___327)

;; "Assume"
(assert (= temp___327 mat))

;; "Assume"
(assert true)

;; "random__random__upper_mask__assume'unused"
(define-fun random__random__upper_mask__assumeqtunused () (_ BitVec 32)
  #x80000000)

;; "Assume"
(assert (= #x80000000 upper_mask))

;; "Assume"
(assert true)

;; "random__random__lower_mask__assume'unused"
(define-fun random__random__lower_mask__assumeqtunused () (_ BitVec 32)
  #x7FFFFFFF)

;; "Assume"
(assert (= #x7FFFFFFF lower_mask))

;; "Assume"
(assert true)

;; "__split_fields__content'result'unused"
(define-fun us_split_fields__contentqtresultqtunused () us_split_fields
  g__split_fields)

;; "__rep'mk'result'unused"
(define-fun us_repqtmkqtresultqtunused () us_rep
  (us_repqtmk g__split_fields))

;; "__split_fields'result'unused"
(define-fun us_split_fieldsqtresultqtunused () us_split_fields
  g__split_fields)

;; "temp___332"
(define-fun temp___332 () (Array Int unsigned_32)
  (rec__random__generator__state g__split_fields))

;; "rec__random__generator__state'result'unused"
(define-fun rec__random__generator__stateqtresultqtunused () (Array Int unsigned_32)
  temp___332)

;; "__split_fields__content'result'unused"
(define-fun us_split_fields__contentqtresultqtunused1 () us_split_fields
  g__split_fields)

;; "__rep'mk'result'unused"
(define-fun us_repqtmkqtresultqtunused1 () us_rep
  (us_repqtmk g__split_fields))

;; "__split_fields'result'unused"
(define-fun us_split_fieldsqtresultqtunused1 () us_split_fields
  g__split_fields)

;; "o"
(define-fun o () state_range
  (rec__random__generator__index g__split_fields))

;; "rec__random__generator__index'result'unused"
(define-fun rec__random__generator__indexqtresultqtunused () state_range
  o)

(declare-const o1 Int)

;; "Ensures"
(assert (= (to_rep o) o1))

;; "to_rep'result'unused"
(define-fun to_repqtresultqtunused () Int
  o1)

;; "o"
(define-fun o2 () Int
  (next o1))

;; "H"
(assert (in_range o2))

;; "H"
(assert (= o2 (ite (= o1 623) 0 (+ o1 1))))

;; "next'result'unused"
(define-fun nextqtresultqtunused () Int
  o2)

;; "o"
(define-fun o3 () unsigned_32
  (select temp___332 o2))

;; "get'result'unused"
(define-fun getqtresultqtunused () unsigned_32
  o3)

(declare-const o4 (_ BitVec 32))

;; "Ensures"
(assert (= (to_rep1 o3) o4))

;; "to_rep'result'unused"
(define-fun to_repqtresultqtunused1 () (_ BitVec 32)
  o4)

;; "o"
(define-fun o5 () (_ BitVec 32)
  (bvand o4 #x7FFFFFFF))

;; "bw_and'result'unused"
(define-fun bw_andqtresultqtunused () (_ BitVec 32)
  o5)

;; "__split_fields__content'result'unused"
(define-fun us_split_fields__contentqtresultqtunused2 () us_split_fields
  g__split_fields)

;; "__rep'mk'result'unused"
(define-fun us_repqtmkqtresultqtunused2 () us_rep
  (us_repqtmk g__split_fields))

;; "__split_fields'result'unused"
(define-fun us_split_fieldsqtresultqtunused2 () us_split_fields
  g__split_fields)

;; "temp___331"
(define-fun temp___331 () (Array Int unsigned_32)
  (rec__random__generator__state g__split_fields))

;; "rec__random__generator__state'result'unused"
(define-fun rec__random__generator__stateqtresultqtunused1 () (Array Int unsigned_32)
  temp___331)

;; "__split_fields__content'result'unused"
(define-fun us_split_fields__contentqtresultqtunused3 () us_split_fields
  g__split_fields)

;; "__rep'mk'result'unused"
(define-fun us_repqtmkqtresultqtunused3 () us_rep
  (us_repqtmk g__split_fields))

;; "__split_fields'result'unused"
(define-fun us_split_fieldsqtresultqtunused3 () us_split_fields
  g__split_fields)

;; "o"
(define-fun o6 () state_range
  (rec__random__generator__index g__split_fields))

;; "rec__random__generator__index'result'unused"
(define-fun rec__random__generator__indexqtresultqtunused1 () state_range
  o6)

(declare-const o7 Int)

;; "Ensures"
(assert (= (to_rep o6) o7))

;; "to_rep'result'unused"
(define-fun to_repqtresultqtunused2 () Int
  o7)

;; "o"
(define-fun o8 () unsigned_32
  (select temp___331 o7))

;; "get'result'unused"
(define-fun getqtresultqtunused1 () unsigned_32
  o8)

(declare-const o9 (_ BitVec 32))

;; "Ensures"
(assert (= (to_rep1 o8) o9))

;; "to_rep'result'unused"
(define-fun to_repqtresultqtunused3 () (_ BitVec 32)
  o9)

;; "o"
(define-fun o10 () (_ BitVec 32)
  (bvand o9 #x80000000))

;; "bw_and'result'unused"
(define-fun bw_andqtresultqtunused1 () (_ BitVec 32)
  o10)

;; "o"
(define-fun o11 () (_ BitVec 32)
  (bvor o10 o5))

;; "bw_or'result'unused"
(define-fun bw_orqtresultqtunused () (_ BitVec 32)
  o11)

(declare-const value1 (_ BitVec 32))

;; "value'unused"
(define-fun valueqtunused () t__ref
  (t__refqtmk value1))

;; "H"
(assert (= value1 o11))

;; "__split_fields__content'result'unused"
(define-fun us_split_fields__contentqtresultqtunused4 () us_split_fields
  g__split_fields)

;; "__rep'mk'result'unused"
(define-fun us_repqtmkqtresultqtunused4 () us_rep
  (us_repqtmk g__split_fields))

;; "_q 'unused"
(define-fun usq_qtunused () us_split_fields
  g__split_fields)

;; "__split_fields'result'unused"
(define-fun us_split_fieldsqtresultqtunused4 () us_split_fields
  g__split_fields)

;; "o"
(define-fun o12 () state_range
  (rec__random__generator__index g__split_fields))

;; "rec__random__generator__index'result'unused"
(define-fun rec__random__generator__indexqtresultqtunused2 () state_range
  o12)

;; "__split_fields__content'result'unused"
(define-fun us_split_fields__contentqtresultqtunused5 () us_split_fields
  g__split_fields)

;; "__rep'mk'result'unused"
(define-fun us_repqtmkqtresultqtunused5 () us_rep
  (us_repqtmk g__split_fields))

;; "__split_fields'result'unused"
(define-fun us_split_fieldsqtresultqtunused5 () us_split_fields
  g__split_fields)

;; "temp___336"
(define-fun temp___336 () (Array Int unsigned_32)
  (rec__random__generator__state g__split_fields))

;; "rec__random__generator__state'result'unused"
(define-fun rec__random__generator__stateqtresultqtunused2 () (Array Int unsigned_32)
  temp___336)

;; "__split_fields__content'result'unused"
(define-fun us_split_fields__contentqtresultqtunused6 () us_split_fields
  g__split_fields)

;; "__rep'mk'result'unused"
(define-fun us_repqtmkqtresultqtunused6 () us_rep
  (us_repqtmk g__split_fields))

;; "__split_fields'result'unused"
(define-fun us_split_fieldsqtresultqtunused6 () us_split_fields
  g__split_fields)

;; "temp___334"
(define-fun temp___334 () (Array Int unsigned_32)
  (rec__random__generator__state g__split_fields))

;; "rec__random__generator__state'result'unused"
(define-fun rec__random__generator__stateqtresultqtunused3 () (Array Int unsigned_32)
  temp___334)

(declare-const o13 Int)

(declare-const us_split_fields__contentqtresultqtunused7 us_split_fields)

;; "H"
(assert (= us_split_fields__contentqtresultqtunused7 g__split_fields))

(declare-const us_repqtmkqtresultqtunused7 us_rep)

;; "H"
(assert (= us_repqtmkqtresultqtunused7 (us_repqtmk g__split_fields)))

(declare-const us_split_fieldsqtresultqtunused7 us_split_fields)

;; "H"
(assert (= us_split_fieldsqtresultqtunused7 g__split_fields))

(declare-const o14 state_range)

;; "H"
(assert (= o14 (rec__random__generator__index g__split_fields)))

(declare-const rec__random__generator__indexqtresultqtunused3 state_range)

;; "H"
(assert (= rec__random__generator__indexqtresultqtunused3 o14))

(declare-const temp___335 Int)

;; "Ensures"
(assert (= (to_rep o14) temp___335))

(declare-const to_repqtresultqtunused4 Int)

;; "H"
(assert (= to_repqtresultqtunused4 temp___335))

(declare-const o15 Bool)

;; "H"
(assert (= o15 (ite (<= temp___335 226) true false)))

(declare-const infix_lseqqtresultqtunused Bool)

;; "H"
(assert (= infix_lseqqtresultqtunused o15))

(declare-const o16 Bool)

;; "H"
(assert (= o16 (ite (<= 0 temp___335) true false)))

(declare-const infix_lseqqtresultqtunused1 Bool)

;; "H"
(assert (= infix_lseqqtresultqtunused1 o16))

(declare-const o17 Bool)

;; "H"
(assert (= o17 (and o16 o15)))

(declare-const andbqtresultqtunused Bool)

;; "H"
(assert (= andbqtresultqtunused o17))

(declare-const o18 Bool)

(declare-const infix_lseqqtresultqtunused2 Bool)

(declare-const o19 Bool)

(declare-const infix_lseqqtresultqtunused3 Bool)

(declare-const o20 Bool)

(declare-const andbqtresultqtunused1 Bool)

(declare-const us_split_fields__contentqtresultqtunused8 us_split_fields)

(declare-const us_repqtmkqtresultqtunused8 us_rep)

(declare-const us_split_fieldsqtresultqtunused8 us_split_fields)

(declare-const o21 state_range)

(declare-const rec__random__generator__indexqtresultqtunused4 state_range)

(declare-const o22 Int)

(declare-const to_repqtresultqtunused5 Int)

(declare-const o23 Int)

(declare-const infix_plqtresultqtunused Int)

(declare-const range_check_qtresultqtunused Int)

(declare-const us_split_fields__contentqtresultqtunused9 us_split_fields)

(declare-const us_repqtmkqtresultqtunused9 us_rep)

(declare-const us_split_fieldsqtresultqtunused9 us_split_fields)

(declare-const o24 state_range)

(declare-const rec__random__generator__indexqtresultqtunused5 state_range)

(declare-const o25 Int)

(declare-const to_repqtresultqtunused6 Int)

(declare-const o26 Int)

(declare-const infix_plqtresultqtunused1 Int)

(declare-const range_check_qtresultqtunused1 Int)

;; "H"
(assert
  (ite (= o17 true)
    (and
      (= us_split_fields__contentqtresultqtunused9 g__split_fields)
      (and
        (= us_repqtmkqtresultqtunused9 (us_repqtmk g__split_fields))
        (and
          (= us_split_fieldsqtresultqtunused9 g__split_fields)
          (and
            (= o24 (rec__random__generator__index g__split_fields))
            (and
              (= rec__random__generator__indexqtresultqtunused5 o24)
              (and
                (= (to_rep o24) o25)
                (and
                  (= to_repqtresultqtunused6 o25)
                  (and
                    (= o26 (+ o25 397))
                    (and
                      (= infix_plqtresultqtunused1 o26)
                      (and
                        (= o13 o26)
                        (and
                          (in_range o26)
                          (= range_check_qtresultqtunused1 o13))))))))))))
    (and
      (= o18 (ite (<= temp___335 622) true false))
      (and
        (= infix_lseqqtresultqtunused2 o18)
        (and
          (= o19 (ite (<= 227 temp___335) true false))
          (and
            (= infix_lseqqtresultqtunused3 o19)
            (and
              (= o20 (and o19 o18))
              (and
                (= andbqtresultqtunused1 o20)
                (ite (= o20 true)
                  (and
                    (= us_split_fields__contentqtresultqtunused8 g__split_fields)
                    (and
                      (= us_repqtmkqtresultqtunused8 (us_repqtmk
                                                       g__split_fields))
                      (and
                        (= us_split_fieldsqtresultqtunused8 g__split_fields)
                        (and
                          (= o21 (rec__random__generator__index
                                   g__split_fields))
                          (and
                            (= rec__random__generator__indexqtresultqtunused4 
                            o21)
                            (and
                              (= (to_rep o21) o22)
                              (and
                                (= to_repqtresultqtunused5 o22)
                                (and
                                  (= o23 (+ o22 (- 227)))
                                  (and
                                    (= infix_plqtresultqtunused o23)
                                    (and
                                      (= o13 o23)
                                      (and
                                        (in_range o23)
                                        (= range_check_qtresultqtunused 
                                        o13))))))))))))
                  (= o13 396))))))))))

;; "o"
(define-fun o27 () unsigned_32
  (select temp___334 o13))

;; "get'result'unused"
(define-fun getqtresultqtunused2 () unsigned_32
  o27)

(declare-const o28 (_ BitVec 32))

;; "Ensures"
(assert (= (to_rep1 o27) o28))

;; "to_rep'result'unused"
(define-fun to_repqtresultqtunused7 () (_ BitVec 32)
  o28)

(declare-const o29 unsigned_32)

;; "Ensures"
(assert (= (to_rep1 o29) o28))

;; "of_rep'result'unused"
(define-fun of_repqtresultqtunused () unsigned_32
  o29)

;; "__split_fields__content'result'unused"
(define-fun us_split_fields__contentqtresultqtunused10 () us_split_fields
  g__split_fields)

;; "__rep'mk'result'unused"
(define-fun us_repqtmkqtresultqtunused10 () us_rep
  (us_repqtmk g__split_fields))

;; "__split_fields'result'unused"
(define-fun us_split_fieldsqtresultqtunused10 () us_split_fields
  g__split_fields)

;; "o"
(define-fun o30 () state_range
  (rec__random__generator__index g__split_fields))

;; "rec__random__generator__index'result'unused"
(define-fun rec__random__generator__indexqtresultqtunused6 () state_range
  o30)

(declare-const o31 Int)

;; "Ensures"
(assert (= (to_rep o30) o31))

;; "to_rep'result'unused"
(define-fun to_repqtresultqtunused8 () Int
  o31)

;; "o"
(define-fun o32 () (Array Int unsigned_32)
  (store temp___336 o31 o29))

;; "set'result'unused"
(define-fun setqtresultqtunused () (Array Int unsigned_32)
  o32)

;; "o"
(define-fun o33 () us_split_fields
  (us_split_fieldsqtmk o32 o12))

;; "__split_fields'mk'result'unused"
(define-fun us_split_fieldsqtmkqtresultqtunused () us_split_fields
  o33)

;; "__rep'mk'result'unused"
(define-fun us_repqtmkqtresultqtunused11 () us_rep
  (us_repqtmk o33))

;; "__split_fields'result'unused"
(define-fun us_split_fieldsqtresultqtunused11 () us_split_fields
  o33)

(declare-const g__split_fields1 us_split_fields)

;; "g__split_fields'unused"
(define-fun g__split_fieldsqtunused1 () us_split_fields__ref
  (us_split_fields__refqtmk g__split_fields1))

;; "H"
(assert (= g__split_fields1 o33))

;; "__split_fields__content'result'unused"
(define-fun us_split_fields__contentqtresultqtunused11 () us_split_fields
  g__split_fields1)

;; "__rep'mk'result'unused"
(define-fun us_repqtmkqtresultqtunused12 () us_rep
  (us_repqtmk g__split_fields1))

;; "_q 'unused"
(define-fun usq_qtunused1 () us_split_fields
  g__split_fields1)

;; "__split_fields'result'unused"
(define-fun us_split_fieldsqtresultqtunused12 () us_split_fields
  g__split_fields1)

;; "o"
(define-fun o34 () state_range
  (rec__random__generator__index g__split_fields1))

;; "rec__random__generator__index'result'unused"
(define-fun rec__random__generator__indexqtresultqtunused7 () state_range
  o34)

;; "__split_fields__content'result'unused"
(define-fun us_split_fields__contentqtresultqtunused12 () us_split_fields
  g__split_fields1)

;; "__rep'mk'result'unused"
(define-fun us_repqtmkqtresultqtunused13 () us_rep
  (us_repqtmk g__split_fields1))

;; "__split_fields'result'unused"
(define-fun us_split_fieldsqtresultqtunused13 () us_split_fields
  g__split_fields1)

;; "temp___344"
(define-fun temp___344 () (Array Int unsigned_32)
  (rec__random__generator__state g__split_fields1))

;; "rec__random__generator__state'result'unused"
(define-fun rec__random__generator__stateqtresultqtunused4 () (Array Int unsigned_32)
  temp___344)

;; "t__content'result'unused"
(define-fun t__contentqtresultqtunused () (_ BitVec 32)
  value1)

;; "temp___343"
(define-fun temp___343 () (_ BitVec 32)
  (bvand value1 #x00000001))

;; "bw_and'result'unused"
(define-fun bw_andqtresultqtunused2 () (_ BitVec 32)
  temp___343)

;; Goal "def'vc"
;; File "random.ads", line 47, characters 0-0
(assert
  (not (bvule temp___343 #x00000001)))

(check-sat)
